minimize
obj: 10 p_grid_1_
subject to
c1_2: 1 SP_1_ + 1000 a_1_ <= 1297.8466
c2_2: 1 SP_2_ + 1000 a_2_ <= 1296.9107
c3_2: 1 SP_3_ + 1000 a_3_ <= 1296.8393
c4_2: 1 SP_4_ + 1000 a_4_ <= 1296.8176
c5_2: 1 SP_5_ + 1000 a_5_ <= 1297.0771
c6_2: 1 SP_6_ + 1000 a_6_ <= 1297.6806000000001
c7_2: 1 SP_7_ + 1000 a_7_ <= 1295.1956
c8_2: 1 SP_8_ + 1000 a_8_ <= 1298.9153999999999
c9_2: 1 SP_9_ + 1000 a_9_ <= 1295.1956
c10_2: 1 SP_10_ + 1000 a_10_ <= 1295.1956
c11_2: 1 SP_11_ + 1000 a_11_ <= 1297.0393
c12_2: 1 SP_12_ + 1000 a_12_ <= 1296.8666
c13_2: 1 SP_13_ + 1000 a_13_ <= 1295.5687
c14_2: 1 SP_14_ + 1000 a_14_ <= 1296.1167
c15_2: 1 SP_15_ + 1000 a_15_ <= 1295.2167
c16_2: 1 SP_16_ + 1000 a_16_ <= 1298.8953000000001
c17_2: 1 SP_17_ + 1000 a_17_ <= 1297.967
c18_2: 1 SP_18_ + 1000 a_18_ <= 1300.6151
c19_2: 1 SP_19_ + 1000 a_19_ <= 1297.9159
c20_2: 1 SP_20_ + 1000 a_20_ <= 1299.0885
c21_2: 1 SP_21_ + 1000 a_21_ <= 1298.0691
c22_2: 1 SP_22_ + 1000 a_22_ <= 1297.9286
c23_2: 1 SP_23_ + 1000 a_23_ <= 1299.9479999999999
c24_2: 1 SP_24_ + 1000 a_24_ <= 1299.9479999999999
c25_2: 1 SP_25_ + 1000 a_25_ <= 1299.9479999999999
c26_2: 1 SP_26_ + 1000 a_26_ <= 1298.7808
c27_2: 1 SP_27_ + 1000 a_27_ <= 1297.8686
c28_2: 1 SP_28_ + 1000 a_28_ <= 1298.3082
c29_2: 1 SP_29_ + 1000 a_29_ <= 1298.025
c30_2: 1 SP_30_ + 1000 a_30_ <= 1295.492
c31_2: 1 SP_31_ + 1000 a_31_ <= 1294.7107
c32_2: 1 SP_32_ + 1000 a_32_ <= 1297.9667
c33_2: 1 SP_33_ + 1000 a_33_ <= 1297.8423
c34_2: 1 SP_34_ + 1000 a_34_ <= 1295.9926
c35_2: 1 SP_35_ + 1000 a_35_ <= 1296.2104
c36_2: 1 SP_36_ + 1000 a_36_ <= 1299.0441
c37_2: 1 SP_transformed_1_ - 1000 a_1_ <= 0
c38_2: 1 SP_transformed_2_ - 1000 a_2_ <= 0
c39_1: 1 SP_transformed_3_ - 1000 a_3_ <= 0
c40_1: 1 SP_transformed_4_ - 1000 a_4_ <= 0
c41_1: 1 SP_transformed_5_ - 1000 a_5_ <= 0
c42_1: 1 SP_transformed_6_ - 1000 a_6_ <= 0
c43_1: 1 SP_transformed_7_ - 1000 a_7_ <= 0
c44_1: 1 SP_transformed_8_ - 1000 a_8_ <= 0
c45_1: 1 SP_transformed_9_ - 1000 a_9_ <= 0
c46_1: 1 SP_transformed_10_ - 1000 a_10_ <= 0
c47_1: 1 SP_transformed_11_ - 1000 a_11_ <= 0
c48_1: 1 SP_transformed_12_ - 1000 a_12_ <= 0
c49_1: 1 SP_transformed_13_ - 1000 a_13_ <= 0
c50_1: 1 SP_transformed_14_ - 1000 a_14_ <= 0
c51_1: 1 SP_transformed_15_ - 1000 a_15_ <= 0
c52_1: 1 SP_transformed_16_ - 1000 a_16_ <= 0
c53_1: 1 SP_transformed_17_ - 1000 a_17_ <= 0
c54_1: 1 SP_transformed_18_ - 1000 a_18_ <= 0
c55_1: 1 SP_transformed_19_ - 1000 a_19_ <= 0
c56_1: 1 SP_transformed_20_ - 1000 a_20_ <= 0
c57_1: 1 SP_transformed_21_ - 1000 a_21_ <= 0
c58_1: 1 SP_transformed_22_ - 1000 a_22_ <= 0
c59_1: 1 SP_transformed_23_ - 1000 a_23_ <= 0
c60_1: 1 SP_transformed_24_ - 1000 a_24_ <= 0
c61_1: 1 SP_transformed_25_ - 1000 a_25_ <= 0
c62_1: 1 SP_transformed_26_ - 1000 a_26_ <= 0
c63_1: 1 SP_transformed_27_ - 1000 a_27_ <= 0
c64_1: 1 SP_transformed_28_ - 1000 a_28_ <= 0
c65_1: 1 SP_transformed_29_ - 1000 a_29_ <= 0
c66_1: 1 SP_transformed_30_ - 1000 a_30_ <= 0
c67_1: 1 SP_transformed_31_ - 1000 a_31_ <= 0
c68_1: 1 SP_transformed_32_ - 1000 a_32_ <= 0
c69_1: 1 SP_transformed_33_ - 1000 a_33_ <= 0
c70_1: 1 SP_transformed_34_ - 1000 a_34_ <= 0
c71_1: 1 SP_transformed_35_ - 1000 a_35_ <= 0
c72_1: 1 SP_transformed_36_ - 1000 a_36_ <= 0
c73_1: -1 SP_1_ + 1 SP_transformed_1_ + 1000 a_1_ <= 1000
c74_1: -1 SP_2_ + 1 SP_transformed_2_ + 1000 a_2_ <= 1000
c75_1: -1 SP_3_ + 1 SP_transformed_3_ + 1000 a_3_ <= 1000
c76_1: -1 SP_4_ + 1 SP_transformed_4_ + 1000 a_4_ <= 1000
c77_1: -1 SP_5_ + 1 SP_transformed_5_ + 1000 a_5_ <= 1000
c78_1: -1 SP_6_ + 1 SP_transformed_6_ + 1000 a_6_ <= 1000
c79_1: -1 SP_7_ + 1 SP_transformed_7_ + 1000 a_7_ <= 1000
c80_1: -1 SP_8_ + 1 SP_transformed_8_ + 1000 a_8_ <= 1000
c81_1: -1 SP_9_ + 1 SP_transformed_9_ + 1000 a_9_ <= 1000
c82_1: -1 SP_10_ + 1 SP_transformed_10_ + 1000 a_10_ <= 1000
c83_1: -1 SP_11_ + 1 SP_transformed_11_ + 1000 a_11_ <= 1000
c84_1: -1 SP_12_ + 1 SP_transformed_12_ + 1000 a_12_ <= 1000
c85_1: -1 SP_13_ + 1 SP_transformed_13_ + 1000 a_13_ <= 1000
c86_1: -1 SP_14_ + 1 SP_transformed_14_ + 1000 a_14_ <= 1000
c87_1: -1 SP_15_ + 1 SP_transformed_15_ + 1000 a_15_ <= 1000
c88_1: -1 SP_16_ + 1 SP_transformed_16_ + 1000 a_16_ <= 1000
c89_1: -1 SP_17_ + 1 SP_transformed_17_ + 1000 a_17_ <= 1000
c90_1: -1 SP_18_ + 1 SP_transformed_18_ + 1000 a_18_ <= 1000
c91_1: -1 SP_19_ + 1 SP_transformed_19_ + 1000 a_19_ <= 1000
c92_1: -1 SP_20_ + 1 SP_transformed_20_ + 1000 a_20_ <= 1000
c93_1: -1 SP_21_ + 1 SP_transformed_21_ + 1000 a_21_ <= 1000
c94_1: -1 SP_22_ + 1 SP_transformed_22_ + 1000 a_22_ <= 1000
c95_1: -1 SP_23_ + 1 SP_transformed_23_ + 1000 a_23_ <= 1000
c96_1: -1 SP_24_ + 1 SP_transformed_24_ + 1000 a_24_ <= 1000
c97_1: -1 SP_25_ + 1 SP_transformed_25_ + 1000 a_25_ <= 1000
c98_1: -1 SP_26_ + 1 SP_transformed_26_ + 1000 a_26_ <= 1000
c99_1: -1 SP_27_ + 1 SP_transformed_27_ + 1000 a_27_ <= 1000
c100_1: -1 SP_28_ + 1 SP_transformed_28_ + 1000 a_28_ <= 1000
c101_1: -1 SP_29_ + 1 SP_transformed_29_ + 1000 a_29_ <= 1000
c102_1: -1 SP_30_ + 1 SP_transformed_30_ + 1000 a_30_ <= 1000
c103_1: -1 SP_31_ + 1 SP_transformed_31_ + 1000 a_31_ <= 1000
c104_1: -1 SP_32_ + 1 SP_transformed_32_ + 1000 a_32_ <= 1000
c105_1: -1 SP_33_ + 1 SP_transformed_33_ + 1000 a_33_ <= 1000
c106_1: -1 SP_34_ + 1 SP_transformed_34_ + 1000 a_34_ <= 1000
c107_1: -1 SP_35_ + 1 SP_transformed_35_ + 1000 a_35_ <= 1000
c108_1: -1 SP_36_ + 1 SP_transformed_36_ + 1000 a_36_ <= 1000
c109_1: 1 bh_1_ <= 0
c110_1: 1 bc_1_ - 1 a_1_ - 1 a_2_ - 1 a_3_ - 1 a_4_ - 1 a_5_ - 1 a_6_ - 1 a_7_ - 1 a_8_ - 1 a_9_ - 1 a_10_ - 1 a_11_ - 1 a_12_ - 1 a_13_ - 1 a_14_ - 1 a_15_ - 1 a_16_ - 1 a_17_ - 1 a_18_ - 1 a_19_ - 1 a_20_ - 1 a_21_ - 1 a_22_ - 1 a_23_ - 1 a_24_ - 1 a_25_ - 1 a_26_ - 1 a_27_ - 1 a_28_ - 1 a_29_ - 1 a_30_ - 1 a_31_ - 1 a_32_ - 1 a_33_ - 1 a_34_ - 1 a_35_ - 1 a_36_ <= 0
c1_1: 1 SP_1_ - 1000 a_1_ >= -1703.1534
c2_1: 1 SP_2_ - 1000 a_2_ >= -1704.0893
c3_1: 1 SP_3_ - 1000 a_3_ >= -1704.1607
c4_1: 1 SP_4_ - 1000 a_4_ >= -1704.1824
c5_1: 1 SP_5_ - 1000 a_5_ >= -1703.9229
c6_1: 1 SP_6_ - 1000 a_6_ >= -1703.3193999999999
c7_1: 1 SP_7_ - 1000 a_7_ >= -1705.8044
c8_1: 1 SP_8_ - 1000 a_8_ >= -1702.0846000000001
c9_1: 1 SP_9_ - 1000 a_9_ >= -1705.8044
c10_1: 1 SP_10_ - 1000 a_10_ >= -1705.8044
c11_1: 1 SP_11_ - 1000 a_11_ >= -1703.9607
c12_1: 1 SP_12_ - 1000 a_12_ >= -1704.1334
c13_1: 1 SP_13_ - 1000 a_13_ >= -1705.4313
c14_1: 1 SP_14_ - 1000 a_14_ >= -1704.8833
c15_1: 1 SP_15_ - 1000 a_15_ >= -1705.7833
c16_1: 1 SP_16_ - 1000 a_16_ >= -1702.1046999999999
c17_1: 1 SP_17_ - 1000 a_17_ >= -1703.033
c18_1: 1 SP_18_ - 1000 a_18_ >= -1700.3849
c19_1: 1 SP_19_ - 1000 a_19_ >= -1703.0841
c20_1: 1 SP_20_ - 1000 a_20_ >= -1701.9115
c21_1: 1 SP_21_ - 1000 a_21_ >= -1702.9309
c22_1: 1 SP_22_ - 1000 a_22_ >= -1703.0714
c23_1: 1 SP_23_ - 1000 a_23_ >= -1701.0520000000001
c24_1: 1 SP_24_ - 1000 a_24_ >= -1701.0520000000001
c25_1: 1 SP_25_ - 1000 a_25_ >= -1701.0520000000001
c26_1: 1 SP_26_ - 1000 a_26_ >= -1702.2192
c27_1: 1 SP_27_ - 1000 a_27_ >= -1703.1314
c28_1: 1 SP_28_ - 1000 a_28_ >= -1702.6918
c29_1: 1 SP_29_ - 1000 a_29_ >= -1702.975
c30_1: 1 SP_30_ - 1000 a_30_ >= -1705.508
c31_1: 1 SP_31_ - 1000 a_31_ >= -1706.2893
c32_1: 1 SP_32_ - 1000 a_32_ >= -1703.0333
c33_1: 1 SP_33_ - 1000 a_33_ >= -1703.1577
c34_1: 1 SP_34_ - 1000 a_34_ >= -1705.0074
c35_1: 1 SP_35_ - 1000 a_35_ >= -1704.7896
c36_1: 1 SP_36_ - 1000 a_36_ >= -1701.9559
c37_1: 1 SP_transformed_1_ + 1000 a_1_ >= 0
c38_1: 1 SP_transformed_2_ + 1000 a_2_ >= 0
c39: 1 SP_transformed_3_ + 1000 a_3_ >= 0
c40: 1 SP_transformed_4_ + 1000 a_4_ >= 0
c41: 1 SP_transformed_5_ + 1000 a_5_ >= 0
c42: 1 SP_transformed_6_ + 1000 a_6_ >= 0
c43: 1 SP_transformed_7_ + 1000 a_7_ >= 0
c44: 1 SP_transformed_8_ + 1000 a_8_ >= 0
c45: 1 SP_transformed_9_ + 1000 a_9_ >= 0
c46: 1 SP_transformed_10_ + 1000 a_10_ >= 0
c47: 1 SP_transformed_11_ + 1000 a_11_ >= 0
c48: 1 SP_transformed_12_ + 1000 a_12_ >= 0
c49: 1 SP_transformed_13_ + 1000 a_13_ >= 0
c50: 1 SP_transformed_14_ + 1000 a_14_ >= 0
c51: 1 SP_transformed_15_ + 1000 a_15_ >= 0
c52: 1 SP_transformed_16_ + 1000 a_16_ >= 0
c53: 1 SP_transformed_17_ + 1000 a_17_ >= 0
c54: 1 SP_transformed_18_ + 1000 a_18_ >= 0
c55: 1 SP_transformed_19_ + 1000 a_19_ >= 0
c56: 1 SP_transformed_20_ + 1000 a_20_ >= 0
c57: 1 SP_transformed_21_ + 1000 a_21_ >= 0
c58: 1 SP_transformed_22_ + 1000 a_22_ >= 0
c59: 1 SP_transformed_23_ + 1000 a_23_ >= 0
c60: 1 SP_transformed_24_ + 1000 a_24_ >= 0
c61: 1 SP_transformed_25_ + 1000 a_25_ >= 0
c62: 1 SP_transformed_26_ + 1000 a_26_ >= 0
c63: 1 SP_transformed_27_ + 1000 a_27_ >= 0
c64: 1 SP_transformed_28_ + 1000 a_28_ >= 0
c65: 1 SP_transformed_29_ + 1000 a_29_ >= 0
c66: 1 SP_transformed_30_ + 1000 a_30_ >= 0
c67: 1 SP_transformed_31_ + 1000 a_31_ >= 0
c68: 1 SP_transformed_32_ + 1000 a_32_ >= 0
c69: 1 SP_transformed_33_ + 1000 a_33_ >= 0
c70: 1 SP_transformed_34_ + 1000 a_34_ >= 0
c71: 1 SP_transformed_35_ + 1000 a_35_ >= 0
c72: 1 SP_transformed_36_ + 1000 a_36_ >= 0
c73: -1 SP_1_ + 1 SP_transformed_1_ - 1000 a_1_ >= -1000
c74: -1 SP_2_ + 1 SP_transformed_2_ - 1000 a_2_ >= -1000
c75: -1 SP_3_ + 1 SP_transformed_3_ - 1000 a_3_ >= -1000
c76: -1 SP_4_ + 1 SP_transformed_4_ - 1000 a_4_ >= -1000
c77: -1 SP_5_ + 1 SP_transformed_5_ - 1000 a_5_ >= -1000
c78: -1 SP_6_ + 1 SP_transformed_6_ - 1000 a_6_ >= -1000
c79: -1 SP_7_ + 1 SP_transformed_7_ - 1000 a_7_ >= -1000
c80: -1 SP_8_ + 1 SP_transformed_8_ - 1000 a_8_ >= -1000
c81: -1 SP_9_ + 1 SP_transformed_9_ - 1000 a_9_ >= -1000
c82: -1 SP_10_ + 1 SP_transformed_10_ - 1000 a_10_ >= -1000
c83: -1 SP_11_ + 1 SP_transformed_11_ - 1000 a_11_ >= -1000
c84: -1 SP_12_ + 1 SP_transformed_12_ - 1000 a_12_ >= -1000
c85: -1 SP_13_ + 1 SP_transformed_13_ - 1000 a_13_ >= -1000
c86: -1 SP_14_ + 1 SP_transformed_14_ - 1000 a_14_ >= -1000
c87: -1 SP_15_ + 1 SP_transformed_15_ - 1000 a_15_ >= -1000
c88: -1 SP_16_ + 1 SP_transformed_16_ - 1000 a_16_ >= -1000
c89: -1 SP_17_ + 1 SP_transformed_17_ - 1000 a_17_ >= -1000
c90: -1 SP_18_ + 1 SP_transformed_18_ - 1000 a_18_ >= -1000
c91: -1 SP_19_ + 1 SP_transformed_19_ - 1000 a_19_ >= -1000
c92: -1 SP_20_ + 1 SP_transformed_20_ - 1000 a_20_ >= -1000
c93: -1 SP_21_ + 1 SP_transformed_21_ - 1000 a_21_ >= -1000
c94: -1 SP_22_ + 1 SP_transformed_22_ - 1000 a_22_ >= -1000
c95: -1 SP_23_ + 1 SP_transformed_23_ - 1000 a_23_ >= -1000
c96: -1 SP_24_ + 1 SP_transformed_24_ - 1000 a_24_ >= -1000
c97: -1 SP_25_ + 1 SP_transformed_25_ - 1000 a_25_ >= -1000
c98: -1 SP_26_ + 1 SP_transformed_26_ - 1000 a_26_ >= -1000
c99: -1 SP_27_ + 1 SP_transformed_27_ - 1000 a_27_ >= -1000
c100: -1 SP_28_ + 1 SP_transformed_28_ - 1000 a_28_ >= -1000
c101: -1 SP_29_ + 1 SP_transformed_29_ - 1000 a_29_ >= -1000
c102: -1 SP_30_ + 1 SP_transformed_30_ - 1000 a_30_ >= -1000
c103: -1 SP_31_ + 1 SP_transformed_31_ - 1000 a_31_ >= -1000
c104: -1 SP_32_ + 1 SP_transformed_32_ - 1000 a_32_ >= -1000
c105: -1 SP_33_ + 1 SP_transformed_33_ - 1000 a_33_ >= -1000
c106: -1 SP_34_ + 1 SP_transformed_34_ - 1000 a_34_ >= -1000
c107: -1 SP_35_ + 1 SP_transformed_35_ - 1000 a_35_ >= -1000
c108: -1 SP_36_ + 1 SP_transformed_36_ - 1000 a_36_ >= -1000
c109: 1 bh_1_ >= 0
c110: 1 bh_1_ >= 0
c111: 1 bh_1_ >= 0
c112: 1 bh_1_ >= 0
c113: 1 bh_1_ >= 0
c114: 1 bh_1_ >= 0
c115: 1 bh_1_ >= 0
c116: 1 bh_1_ >= 0
c117: 1 bh_1_ >= 0
c118: 1 bh_1_ >= 0
c119: 1 bh_1_ >= 0
c120: 1 bh_1_ >= 0
c121: 1 bh_1_ >= 0
c122: 1 bh_1_ >= 0
c123: 1 bh_1_ >= 0
c124: 1 bh_1_ >= 0
c125: 1 bh_1_ >= 0
c126: 1 bh_1_ >= 0
c127: 1 bh_1_ >= 0
c128: 1 bh_1_ >= 0
c129: 1 bh_1_ >= 0
c130: 1 bh_1_ >= 0
c131: 1 bh_1_ >= 0
c132: 1 bh_1_ >= 0
c133: 1 bh_1_ >= 0
c134: 1 bh_1_ >= 0
c135: 1 bh_1_ >= 0
c136: 1 bh_1_ >= 0
c137: 1 bh_1_ >= 0
c138: 1 bh_1_ >= 0
c139: 1 bh_1_ >= 0
c140: 1 bh_1_ >= 0
c141: 1 bh_1_ >= 0
c142: 1 bh_1_ >= 0
c143: 1 bh_1_ >= 0
c144: 1 bh_1_ >= 0
c145: 1 bc_1_ - 1 a_1_ >= 0
c146: 1 bc_1_ - 1 a_2_ >= 0
c147: 1 bc_1_ - 1 a_3_ >= 0
c148: 1 bc_1_ - 1 a_4_ >= 0
c149: 1 bc_1_ - 1 a_5_ >= 0
c150: 1 bc_1_ - 1 a_6_ >= 0
c151: 1 bc_1_ - 1 a_7_ >= 0
c152: 1 bc_1_ - 1 a_8_ >= 0
c153: 1 bc_1_ - 1 a_9_ >= 0
c154: 1 bc_1_ - 1 a_10_ >= 0
c155: 1 bc_1_ - 1 a_11_ >= 0
c156: 1 bc_1_ - 1 a_12_ >= 0
c157: 1 bc_1_ - 1 a_13_ >= 0
c158: 1 bc_1_ - 1 a_14_ >= 0
c159: 1 bc_1_ - 1 a_15_ >= 0
c160: 1 bc_1_ - 1 a_16_ >= 0
c161: 1 bc_1_ - 1 a_17_ >= 0
c162: 1 bc_1_ - 1 a_18_ >= 0
c163: 1 bc_1_ - 1 a_19_ >= 0
c164: 1 bc_1_ - 1 a_20_ >= 0
c165: 1 bc_1_ - 1 a_21_ >= 0
c166: 1 bc_1_ - 1 a_22_ >= 0
c167: 1 bc_1_ - 1 a_23_ >= 0
c168: 1 bc_1_ - 1 a_24_ >= 0
c169: 1 bc_1_ - 1 a_25_ >= 0
c170: 1 bc_1_ - 1 a_26_ >= 0
c171: 1 bc_1_ - 1 a_27_ >= 0
c172: 1 bc_1_ - 1 a_28_ >= 0
c173: 1 bc_1_ - 1 a_29_ >= 0
c174: 1 bc_1_ - 1 a_30_ >= 0
c175: 1 bc_1_ - 1 a_31_ >= 0
c176: 1 bc_1_ - 1 a_32_ >= 0
c177: 1 bc_1_ - 1 a_33_ >= 0
c178: 1 bc_1_ - 1 a_34_ >= 0
c179: 1 bc_1_ - 1 a_35_ >= 0
c180: 1 bc_1_ - 1 a_36_ >= 0
c1: 1 PVused_1_ + 1 PVcurt_1_ = 0
c2: -1 p_HVAC_1_ + 1 p_grid_1_ + 1 PVused_1_ = 0
c3: 1 T_1_ + 0.0013 SP_transformed_1_ = 297.7973152300001
c4: 1 T_2_ - 0.0028 SP_transformed_2_ - 0.0014 SP_transformed_4_ + 0.0008 SP_transformed_6_ = 295.50150633175457
c5: 1 T_3_ - 0.0063 SP_transformed_3_ - 0.0003 SP_transformed_4_ + 0.0005 SP_transformed_5_ = 295.05997565999996
c6: 1 T_4_ - 0.0008 SP_transformed_2_ + 0.0013 SP_transformed_3_ - 0.0019 SP_transformed_4_ = 296.04823499
c7: 1 T_5_ - 0.001 SP_transformed_3_ - 0.2408 SP_transformed_5_ = 224.9457930733903
c8: 1 T_6_ - 0.0006 SP_transformed_2_ - 0.0014 SP_transformed_6_ = 297.0091691696328
c9: 1 T_7_ + 0.0014 SP_transformed_7_ + 0.0015 SP_transformed_9_ = 295.70361323000003
c10: 1 T_8_ - 0.0009 SP_transformed_8_ + 0.0002 SP_transformed_11_ = 298.30585205999995
c11: 1 T_9_ - 0.3438 SP_transformed_9_ + 0.0008 SP_transformed_10_ = 194.08383076
c12: 1 T_10_ + 0.0016 SP_transformed_9_ + 0.0055 SP_transformed_10_ = 299.17939536999995
c13: 1 T_11_ + 0.0011 SP_transformed_8_ + 0.0027 SP_transformed_11_ = 299.79174471
c14: 1 T_12_ - 0.018 SP_transformed_12_ + 0.0002 SP_transformed_14_ = 291.2228272400001
c15: 1 T_13_ - 0.0053 SP_transformed_13_ = 294.2441420300001
c16: 1 T_14_ + 0.0001 SP_transformed_12_ + 0.0006 SP_transformed_14_ = 296.43916307
c17: 1 T_15_ + 0.0013 SP_transformed_15_ - 0.0005 SP_transformed_22_ = 297.51102527
c18: 1 T_16_ - 0.0007 SP_transformed_16_ - 0.0002 SP_transformed_17_ = 299.45894145
c19: 1 T_17_ + 0.0006 SP_transformed_16_ + 0.0007 SP_transformed_17_ = 299.6998229400001
c20: 1 T_18_ - 0.0001 SP_transformed_16_ - 0.0321 SP_transformed_18_ = 290.7869239043924
c21: 1 T_19_ + 0.0001 SP_transformed_17_ + 0.0006 SP_transformed_18_ + 0.0022 SP_transformed_19_ = 299.8733932558806
c22: 1 T_20_ + 0.0003 SP_transformed_20_ + 0.001 SP_transformed_21_ = 299.38783386
c23: 1 T_21_ - 0.0012 SP_transformed_21_ - 0.0001 SP_transformed_22_ = 297.53003540589435
c24: 1 T_22_ - 0.0008 SP_transformed_15_ + 0.0006 SP_transformed_21_ + 0.0003 SP_transformed_22_ = 299.18803073000015
c25: 1 T_23_ + 0.1075 SP_transformed_23_ = 331.16349587999997
c26: 1 T_24_ + 0.0009 SP_transformed_24_ + 0.0022 SP_transformed_25_ + 0.0004 SP_transformed_26_ = 302.05340298
c27: 1 T_25_ + 0.0003 SP_transformed_24_ + 0.0028 SP_transformed_25_ + 0.0006 SP_transformed_26_ = 302.11459184999995
c28: 1 T_26_ - 0.0002 SP_transformed_24_ + 0.0016 SP_transformed_25_ + 0.002 SP_transformed_26_ = 302.17185655000003
c29: 1 T_27_ - 0.002 SP_transformed_27_ + 0.0004 SP_transformed_28_ + 0.0004 SP_transformed_29_ = 296.83748665
c30: 1 T_28_ - 0.0009 SP_transformed_27_ - 0.0023 SP_transformed_28_ + 0.0009 SP_transformed_29_ = 298.6008411900001
c31: 1 T_29_ - 0.0001 SP_transformed_27_ + 0.0006 SP_transformed_28_ + 0.0011 SP_transformed_29_ = 298.26364863000003
c32: 1 T_30_ - 0.0013 SP_transformed_30_ + 0.0008 SP_transformed_31_ - 0.0002 SP_transformed_32_ + 0.0007 SP_transformed_33_ + 0.0005 SP_transformed_34_ - 0.0001 SP_transformed_35_ + 0.0007 SP_transformed_36_ = 295.0546745527547
c33: 1 T_31_ + 0.0008 SP_transformed_30_ + 0.0008 SP_transformed_31_ + 0.0012 SP_transformed_36_ = 295.0701999224622
c34: 1 T_32_ + 0.001 SP_transformed_30_ + 0.0008 SP_transformed_32_ - 0.0009 SP_transformed_35_ = 297.40305684
c35: 1 T_33_ + 0.0008 SP_transformed_30_ + 0.0022 SP_transformed_33_ + 0.0006 SP_transformed_34_ = 297.6349678900001
c36: 1 T_34_ + 0.0018 SP_transformed_30_ + 0.0009 SP_transformed_33_ + 0.0011 SP_transformed_34_ = 296.0135206799999
c37: 1 T_35_ + 0.0004 SP_transformed_30_ + 0.0001 SP_transformed_32_ - 0.006 SP_transformed_35_ + 0.0001 SP_transformed_36_ = 293.52383982339546
c38: 1 T_36_ + 0.001 SP_transformed_30_ + 0.0013 SP_transformed_31_ + 0.0007 SP_transformed_35_ - 0.0016 SP_transformed_36_ = 298.22151878000005
power_constraint_1_: 816.9749 T_1_ - 2224.3009 T_2_ + 922.0795 T_3_ + 1870.4671 T_4_ - 3129.5462 T_5_ - 706.3161 T_6_ - 1095.723 T_7_ + 3981.8583 T_8_ - 247.5353 T_9_ + 1038.4737 T_10_ + 105.3698 T_11_ + 2933.7065 T_12_ - 735.0748 T_13_ + 1200.8965 T_14_ + 1683.1343 T_15_ - 2117.1431 T_16_ + 63.2626 T_17_ - 1735.9747 T_18_ + 777.4181 T_19_ + 941.2011 T_20_ - 1750.5061 T_21_ - 1099.3586 T_22_ - 2015.6638 T_23_ - 1126.9093 T_24_ + 852.0715 T_25_ + 1684.7479 T_26_ + 138.7108 T_27_ + 152.2258 T_28_ - 3459.1118 T_29_ - 1498.9871 T_30_ + 404.0817 T_31_ - 645.1048 T_32_ + 1069.5389 T_33_ - 2026.4288 T_34_ + 1963.6369 T_35_ - 53.2628 T_36_ + 1 p_HVAC_1_ = -873067.7245899299
Bounds
294.15 <= T_1_ <= 303.15
294.15 <= T_2_ <= 303.15
294.15 <= T_3_ <= 303.15
294.15 <= T_4_ <= 303.15
294.15 <= T_5_ <= 303.15
294.15 <= T_6_ <= 303.15
294.15 <= T_7_ <= 303.15
294.15 <= T_8_ <= 303.15
294.15 <= T_9_ <= 303.15
294.15 <= T_10_ <= 303.15
294.15 <= T_11_ <= 303.15
294.15 <= T_12_ <= 303.15
294.15 <= T_13_ <= 303.15
294.15 <= T_14_ <= 303.15
294.15 <= T_15_ <= 303.15
294.15 <= T_16_ <= 303.15
294.15 <= T_17_ <= 303.15
294.15 <= T_18_ <= 303.15
294.15 <= T_19_ <= 303.15
294.15 <= T_20_ <= 303.15
294.15 <= T_21_ <= 303.15
294.15 <= T_22_ <= 303.15
294.15 <= T_23_ <= 303.15
294.15 <= T_24_ <= 303.15
294.15 <= T_25_ <= 303.15
294.15 <= T_26_ <= 303.15
294.15 <= T_27_ <= 303.15
294.15 <= T_28_ <= 303.15
294.15 <= T_29_ <= 303.15
294.15 <= T_30_ <= 303.15
294.15 <= T_31_ <= 303.15
294.15 <= T_32_ <= 303.15
294.15 <= T_33_ <= 303.15
294.15 <= T_34_ <= 303.15
294.15 <= T_35_ <= 303.15
294.15 <= T_36_ <= 303.15
p_HVAC_1_ >= 0
292.15 <= SP_1_ <= 303.15
292.15 <= SP_2_ <= 303.15
292.15 <= SP_3_ <= 303.15
292.15 <= SP_4_ <= 303.15
292.15 <= SP_5_ <= 303.15
292.15 <= SP_6_ <= 303.15
292.15 <= SP_7_ <= 303.15
292.15 <= SP_8_ <= 303.15
292.15 <= SP_9_ <= 303.15
292.15 <= SP_10_ <= 303.15
292.15 <= SP_11_ <= 303.15
292.15 <= SP_12_ <= 303.15
292.15 <= SP_13_ <= 303.15
292.15 <= SP_14_ <= 303.15
292.15 <= SP_15_ <= 303.15
292.15 <= SP_16_ <= 303.15
292.15 <= SP_17_ <= 303.15
292.15 <= SP_18_ <= 303.15
292.15 <= SP_19_ <= 303.15
292.15 <= SP_20_ <= 303.15
292.15 <= SP_21_ <= 303.15
292.15 <= SP_22_ <= 303.15
292.15 <= SP_23_ <= 303.15
292.15 <= SP_24_ <= 303.15
292.15 <= SP_25_ <= 303.15
292.15 <= SP_26_ <= 303.15
292.15 <= SP_27_ <= 303.15
292.15 <= SP_28_ <= 303.15
292.15 <= SP_29_ <= 303.15
292.15 <= SP_30_ <= 303.15
292.15 <= SP_31_ <= 303.15
292.15 <= SP_32_ <= 303.15
292.15 <= SP_33_ <= 303.15
292.15 <= SP_34_ <= 303.15
292.15 <= SP_35_ <= 303.15
292.15 <= SP_36_ <= 303.15
0 <= p_grid_1_ <= 100000000
PVused_1_ = 0
PVcurt_1_ = 0
0 <= SP_transformed_1_ <= 303.15
0 <= SP_transformed_2_ <= 303.15
0 <= SP_transformed_3_ <= 303.15
0 <= SP_transformed_4_ <= 303.15
0 <= SP_transformed_5_ <= 303.15
0 <= SP_transformed_6_ <= 303.15
0 <= SP_transformed_7_ <= 303.15
0 <= SP_transformed_8_ <= 303.15
0 <= SP_transformed_9_ <= 303.15
0 <= SP_transformed_10_ <= 303.15
0 <= SP_transformed_11_ <= 303.15
0 <= SP_transformed_12_ <= 303.15
0 <= SP_transformed_13_ <= 303.15
0 <= SP_transformed_14_ <= 303.15
0 <= SP_transformed_15_ <= 303.15
0 <= SP_transformed_16_ <= 303.15
0 <= SP_transformed_17_ <= 303.15
0 <= SP_transformed_18_ <= 303.15
0 <= SP_transformed_19_ <= 303.15
0 <= SP_transformed_20_ <= 303.15
0 <= SP_transformed_21_ <= 303.15
0 <= SP_transformed_22_ <= 303.15
0 <= SP_transformed_23_ <= 303.15
0 <= SP_transformed_24_ <= 303.15
0 <= SP_transformed_25_ <= 303.15
0 <= SP_transformed_26_ <= 303.15
0 <= SP_transformed_27_ <= 303.15
0 <= SP_transformed_28_ <= 303.15
0 <= SP_transformed_29_ <= 303.15
0 <= SP_transformed_30_ <= 303.15
0 <= SP_transformed_31_ <= 303.15
0 <= SP_transformed_32_ <= 303.15
0 <= SP_transformed_33_ <= 303.15
0 <= SP_transformed_34_ <= 303.15
0 <= SP_transformed_35_ <= 303.15
0 <= SP_transformed_36_ <= 303.15
Binary
bh_1_
bc_1_
a_1_
a_2_
a_3_
a_4_
a_5_
a_6_
a_7_
a_8_
a_9_
a_10_
a_11_
a_12_
a_13_
a_14_
a_15_
a_16_
a_17_
a_18_
a_19_
a_20_
a_21_
a_22_
a_23_
a_24_
a_25_
a_26_
a_27_
a_28_
a_29_
a_30_
a_31_
a_32_
a_33_
a_34_
a_35_
a_36_
End
